14
0 1 76
0 2 50
0 3 49
0 4 36
0 5 48
0 6 81
0 7 85
0 8 59
0 9 16
0 10 57
0 11 9
0 12 56
0 13 60
1 0 92
1 2 76
1 3 1
1 4 91
1 5 4
1 6 37
1 7 5
1 8 39
1 9 47
1 10 47
1 11 60
1 12 72
1 13 30
2 0 80
2 1 21
2 3 93
2 4 30
2 5 4
2 6 32
2 7 62
2 8 6
2 9 89
2 10 90
2 11 80
2 12 22
2 13 60
3 0 16
3 1 9
3 2 4
3 4 88
3 5 6
3 6 31
3 7 12
3 8 87
3 9 83
3 10 50
3 11 62
3 12 96
3 13 4
4 0 21
4 1 2
4 2 2
4 3 8
4 5 4
4 6 30
4 7 90
4 8 7
4 9 65
4 10 2
4 11 88
4 12 93
4 13 79
5 0 3
5 1 84
5 2 37
5 3 67
5 4 9
5 6 63
5 7 86
5 8 45
5 9 47
5 10 78
5 11 24
5 12 90
5 13 66
6 0 74
6 1 81
6 2 21
6 3 11
6 4 7
6 5 99
6 7 75
6 8 31
6 9 36
6 10 5
6 11 11
6 12 20
6 13 64
7 0 87
7 1 91
7 2 4
7 3 5
7 4 91
7 5 79
7 6 67
7 8 32
7 9 61
7 10 28
7 11 65
7 12 94
7 13 54
8 0 56
8 1 80
8 2 70
8 3 9
8 4 23
8 5 87
8 6 21
8 7 26
8 9 83
8 10 86
8 11 30
8 12 78
8 13 27
9 0 46
9 1 90
9 2 8
9 3 2
9 4 57
9 5 13
9 6 8
9 7 8
9 8 3
9 10 28
9 11 83
9 12 70
9 13 50
10 0 61
10 1 45
10 2 85
10 3 90
10 4 35
10 5 48
10 6 25
10 7 21
10 8 91
10 9 56
10 11 17
10 12 80
10 13 91
11 0 97
11 1 75
11 2 48
11 3 62
11 4 20
11 5 6
11 6 31
11 7 89
11 8 19
11 9 42
11 10 18
11 12 78
11 13 12
12 0 59
12 1 37
12 2 15
12 3 71
12 4 21
12 5 18
12 6 37
12 7 69
12 8 74
12 9 54
12 10 50
12 11 46
12 13 97
13 0 7
13 1 5
13 2 57
13 3 72
13 4 17
13 5 34
13 6 20
13 7 96
13 8 75
13 9 37
13 10 4
13 11 50
13 12 41
